
        $ From http://www.csplib.org/Problems/prob009/data/helmut.pdf
        $ Problem number 201
        $ Sequence length : 25
        language ESSENCE' 1.0
        letting sizemaster be 611
        letting sizes be sequence(1,10,22,26,32,41,45,54,57,61,62,66,85,86,87,95,97,101,119,132,136,167,176,268,343)
        